0 0 0 0
0 1 0 25
0 2 0 0
0 3 0 0
0 4 0 7
0 5 0 34
0 6 0 17
0 7 0 38
0 8 0 7
0 9 0 60
0 10 0 25
0 11 0 9
0 12 0 17
0 13 0 25
0 14 0 8
0 15 0 13
0 16 0 31
0 17 0 23
0 18 0 31
0 19 0 27
0 20 0 46
0 21 0 36
0 22 0 36
0 23 0 40
0 24 0 52
0 25 0 69
0 26 0 59
0 27 0 55
0 28 0 17
0 29 0 71
0 30 0 41
0 31 0 46
0 32 0 46
0 33 0 34
0 34 0 55
0 35 0 63
0 36 0 55
0 37 0 63
0 38 0 91
0 39 0 67
0 40 0 50
0 41 0 86
0 42 0 95
0 43 0 79
0 44 0 52
0 45 0 15
0 46 0 59
0 47 0 60
0 48 0 69
0 49 0 74
0 50 0 80
0 51 0 80
0 52 0 89
0 53 0 87
0 54 0 103
0 55 0 98
0 56 0 86
0 57 0 96
0 58 0 104
0 59 0 109
0 60 0 96
0 61 0 113
